p cnf 68 389
-20 1 0
-20 9 0
-21 1 0
-21 11 0
-22 1 0
-22 12 0
-23 1 0
-23 13 0
-24 1 0
-24 15 0
-25 2 0
-25 9 0
-26 2 0
-26 11 0
-27 2 0
-27 12 0
-28 2 0
-28 14 0
-29 2 0
-29 15 0
-30 3 0
-30 9 0
-31 3 0
-31 11 0
-32 3 0
-32 13 0
-33 3 0
-33 14 0
-34 3 0
-34 15 0
-35 4 0
-35 9 0
-36 4 0
-36 11 0
-37 4 0
-37 13 0
-38 4 0
-38 14 0
-39 4 0
-39 15 0
-40 5 0
-40 10 0
-41 5 0
-41 11 0
-42 5 0
-42 12 0
-43 5 0
-43 13 0
-44 5 0
-44 14 0
-45 6 0
-45 10 0
-46 6 0
-46 12 0
-47 6 0
-47 13 0
-48 6 0
-48 14 0
-49 6 0
-49 17 0
-50 7 0
-50 10 0
-51 7 0
-51 12 0
-52 7 0
-52 13 0
-53 7 0
-53 15 0
-54 7 0
-54 17 0
-55 8 0
-55 10 0
-56 8 0
-56 12 0
-57 8 0
-57 14 0
-58 8 0
-58 15 0
-59 8 0
-59 19 0
-60 9 0
-60 16 0
-61 9 0
-61 18 0
-62 10 0
-62 16 0
-63 10 0
-63 18 0
-64 11 0
-64 16 0
-65 16 0
-65 17 0
-66 16 0
-66 19 0
-67 17 0
-67 18 0
-68 18 0
-68 19 0
-20 -21 -22 -23 -24 0
-1 20 21 0
-1 20 22 0
-1 20 23 0
-1 20 24 0
-1 21 22 0
-1 21 23 0
-1 21 24 0
-1 22 23 0
-1 22 24 0
-1 23 24 0
-25 -26 -27 -28 -29 0
-2 25 26 0
-2 25 27 0
-2 25 28 0
-2 25 29 0
-2 26 27 0
-2 26 28 0
-2 26 29 0
-2 27 28 0
-2 27 29 0
-2 28 29 0
-30 -31 -32 -33 -34 0
-3 30 31 0
-3 30 32 0
-3 30 33 0
-3 30 34 0
-3 31 32 0
-3 31 33 0
-3 31 34 0
-3 32 33 0
-3 32 34 0
-3 33 34 0
-35 -36 -37 -38 -39 0
-4 35 36 0
-4 35 37 0
-4 35 38 0
-4 35 39 0
-4 36 37 0
-4 36 38 0
-4 36 39 0
-4 37 38 0
-4 37 39 0
-4 38 39 0
-40 -41 -42 -43 -44 0
-5 40 41 0
-5 40 42 0
-5 40 43 0
-5 40 44 0
-5 41 42 0
-5 41 43 0
-5 41 44 0
-5 42 43 0
-5 42 44 0
-5 43 44 0
-45 -46 -47 -48 -49 0
-6 45 46 0
-6 45 47 0
-6 45 48 0
-6 45 49 0
-6 46 47 0
-6 46 48 0
-6 46 49 0
-6 47 48 0
-6 47 49 0
-6 48 49 0
-50 -51 -52 -53 -54 0
-7 50 51 0
-7 50 52 0
-7 50 53 0
-7 50 54 0
-7 51 52 0
-7 51 53 0
-7 51 54 0
-7 52 53 0
-7 52 54 0
-7 53 54 0
-55 -56 -57 -58 -59 0
-8 55 56 0
-8 55 57 0
-8 55 58 0
-8 55 59 0
-8 56 57 0
-8 56 58 0
-8 56 59 0
-8 57 58 0
-8 57 59 0
-8 58 59 0
-20 -25 -30 -35 -60 0
-20 -25 -30 -35 -61 0
-20 -25 -30 -60 -61 0
-20 -25 -35 -60 -61 0
-20 -30 -35 -60 -61 0
-25 -30 -35 -60 -61 0
-9 20 25 30 0
-9 20 25 35 0
-9 20 25 60 0
-9 20 25 61 0
-9 20 30 35 0
-9 20 30 60 0
-9 20 30 61 0
-9 20 35 60 0
-9 20 35 61 0
-9 20 60 61 0
-9 25 30 35 0
-9 25 30 60 0
-9 25 30 61 0
-9 25 35 60 0
-9 25 35 61 0
-9 25 60 61 0
-9 30 35 60 0
-9 30 35 61 0
-9 30 60 61 0
-9 35 60 61 0
-40 -45 -50 -55 -62 0
-40 -45 -50 -55 -63 0
-40 -45 -50 -62 -63 0
-40 -45 -55 -62 -63 0
-40 -50 -55 -62 -63 0
-45 -50 -55 -62 -63 0
-10 40 45 50 0
-10 40 45 55 0
-10 40 45 62 0
-10 40 45 63 0
-10 40 50 55 0
-10 40 50 62 0
-10 40 50 63 0
-10 40 55 62 0
-10 40 55 63 0
-10 40 62 63 0
-10 45 50 55 0
-10 45 50 62 0
-10 45 50 63 0
-10 45 55 62 0
-10 45 55 63 0
-10 45 62 63 0
-10 50 55 62 0
-10 50 55 63 0
-10 50 62 63 0
-10 55 62 63 0
-21 -26 -31 -36 -41 0
-21 -26 -31 -36 -64 0
-21 -26 -31 -41 -64 0
-21 -26 -36 -41 -64 0
-21 -31 -36 -41 -64 0
-26 -31 -36 -41 -64 0
-11 21 26 31 0
-11 21 26 36 0
-11 21 26 41 0
-11 21 26 64 0
-11 21 31 36 0
-11 21 31 41 0
-11 21 31 64 0
-11 21 36 41 0
-11 21 36 64 0
-11 21 41 64 0
-11 26 31 36 0
-11 26 31 41 0
-11 26 31 64 0
-11 26 36 41 0
-11 26 36 64 0
-11 26 41 64 0
-11 31 36 41 0
-11 31 36 64 0
-11 31 41 64 0
-11 36 41 64 0
-22 -27 -42 -46 -51 0
-22 -27 -42 -46 -56 0
-22 -27 -42 -51 -56 0
-22 -27 -46 -51 -56 0
-22 -42 -46 -51 -56 0
-27 -42 -46 -51 -56 0
-12 22 27 42 0
-12 22 27 46 0
-12 22 27 51 0
-12 22 27 56 0
-12 22 42 46 0
-12 22 42 51 0
-12 22 42 56 0
-12 22 46 51 0
-12 22 46 56 0
-12 22 51 56 0
-12 27 42 46 0
-12 27 42 51 0
-12 27 42 56 0
-12 27 46 51 0
-12 27 46 56 0
-12 27 51 56 0
-12 42 46 51 0
-12 42 46 56 0
-12 42 51 56 0
-12 46 51 56 0
-23 -32 -37 -43 -47 0
-23 -32 -37 -43 -52 0
-23 -32 -37 -47 -52 0
-23 -32 -43 -47 -52 0
-23 -37 -43 -47 -52 0
-32 -37 -43 -47 -52 0
-13 23 32 37 0
-13 23 32 43 0
-13 23 32 47 0
-13 23 32 52 0
-13 23 37 43 0
-13 23 37 47 0
-13 23 37 52 0
-13 23 43 47 0
-13 23 43 52 0
-13 23 47 52 0
-13 32 37 43 0
-13 32 37 47 0
-13 32 37 52 0
-13 32 43 47 0
-13 32 43 52 0
-13 32 47 52 0
-13 37 43 47 0
-13 37 43 52 0
-13 37 47 52 0
-13 43 47 52 0
-28 -33 -38 -44 -48 0
-28 -33 -38 -44 -57 0
-28 -33 -38 -48 -57 0
-28 -33 -44 -48 -57 0
-28 -38 -44 -48 -57 0
-33 -38 -44 -48 -57 0
-14 28 33 38 0
-14 28 33 44 0
-14 28 33 48 0
-14 28 33 57 0
-14 28 38 44 0
-14 28 38 48 0
-14 28 38 57 0
-14 28 44 48 0
-14 28 44 57 0
-14 28 48 57 0
-14 33 38 44 0
-14 33 38 48 0
-14 33 38 57 0
-14 33 44 48 0
-14 33 44 57 0
-14 33 48 57 0
-14 38 44 48 0
-14 38 44 57 0
-14 38 48 57 0
-14 44 48 57 0
-24 -29 -34 -39 -53 0
-24 -29 -34 -39 -58 0
-24 -29 -34 -53 -58 0
-24 -29 -39 -53 -58 0
-24 -34 -39 -53 -58 0
-29 -34 -39 -53 -58 0
-15 24 29 34 0
-15 24 29 39 0
-15 24 29 53 0
-15 24 29 58 0
-15 24 34 39 0
-15 24 34 53 0
-15 24 34 58 0
-15 24 39 53 0
-15 24 39 58 0
-15 24 53 58 0
-15 29 34 39 0
-15 29 34 53 0
-15 29 34 58 0
-15 29 39 53 0
-15 29 39 58 0
-15 29 53 58 0
-15 34 39 53 0
-15 34 39 58 0
-15 34 53 58 0
-15 39 53 58 0
-60 -62 -64 -65 -66 0
-16 60 62 0
-16 60 64 0
-16 60 65 0
-16 60 66 0
-16 62 64 0
-16 62 65 0
-16 62 66 0
-16 64 65 0
-16 64 66 0
-16 65 66 0
-17 49 0
-17 54 0
-17 65 0
-17 67 0
-18 61 0
-18 63 0
-18 67 0
-18 68 0
-19 0
1 2 3 4 5 6 7 8 9 10 11 12 13 14 15 16 17 18 19 0
