# bipartite 5-regular, 104 vertices, 260 edges, no pair; one edge per line
0 6
0 7
0 8
0 9
0 11
1 6
1 7
1 8
1 9
1 11
2 6
2 7
2 8
2 10
2 12
3 6
3 7
3 8
3 9
3 10
4 6
4 7
4 9
4 10
4 12
5 8
5 9
5 10
5 11
5 12
10 88
11 89
11 101
12 102
12 103
13 19
13 20
13 21
13 22
13 24
14 19
14 20
14 21
14 22
14 24
15 19
15 20
15 21
15 23
15 25
16 19
16 20
16 21
16 22
16 23
17 19
17 20
17 22
17 23
17 25
18 21
18 22
18 23
18 24
18 25
23 75
24 89
24 90
25 90
25 102
26 32
26 33
26 34
26 35
26 37
27 32
27 33
27 34
27 35
27 37
28 32
28 33
28 34
28 36
28 38
29 32
29 33
29 34
29 35
29 36
30 32
30 33
30 35
30 36
30 38
31 34
31 35
31 36
31 37
31 38
36 62
37 63
37 76
38 76
38 77
39 45
39 46
39 47
39 48
39 50
40 45
40 46
40 47
40 48
40 50
41 45
41 46
41 47
41 49
41 51
42 45
42 46
42 47
42 48
42 49
43 45
43 46
43 48
43 49
43 51
44 47
44 48
44 49
44 50
44 51
49 63
50 64
50 77
51 64
51 103
52 58
52 59
52 60
52 61
52 63
53 58
53 59
53 60
53 61
53 63
54 58
54 59
54 60
54 62
54 64
55 58
55 59
55 60
55 61
55 62
56 58
56 59
56 61
56 62
56 64
57 60
57 61
57 62
57 63
57 64
65 71
65 72
65 73
65 74
65 76
66 71
66 72
66 73
66 74
66 76
67 71
67 72
67 73
67 75
67 77
68 71
68 72
68 73
68 74
68 75
69 71
69 72
69 74
69 75
69 77
70 73
70 74
70 75
70 76
70 77
78 84
78 85
78 86
78 87
78 89
79 84
79 85
79 86
79 87
79 89
80 84
80 85
80 86
80 88
80 90
81 84
81 85
81 86
81 87
81 88
82 84
82 85
82 87
82 88
82 90
83 86
83 87
83 88
83 89
83 90
91 97
91 98
91 99
91 100
91 102
92 97
92 98
92 99
92 100
92 102
93 97
93 98
93 99
93 101
93 103
94 97
94 98
94 99
94 100
94 101
95 97
95 98
95 100
95 101
95 103
96 99
96 100
96 101
96 102
96 103
