p cnf 52 265
-16 1 0
-16 9 0
-17 1 0
-17 11 0
-18 1 0
-18 12 0
-19 1 0
-19 13 0
-20 1 0
-20 15 0
-21 2 0
-21 9 0
-22 2 0
-22 11 0
-23 2 0
-23 12 0
-24 2 0
-24 14 0
-25 2 0
-25 15 0
-26 3 0
-26 9 0
-27 3 0
-27 11 0
-28 3 0
-28 13 0
-29 3 0
-29 14 0
-30 3 0
-30 15 0
-31 4 0
-31 9 0
-32 4 0
-32 11 0
-33 4 0
-33 13 0
-34 4 0
-34 14 0
-35 4 0
-35 15 0
-36 5 0
-36 10 0
-37 5 0
-37 11 0
-38 5 0
-38 12 0
-39 5 0
-39 13 0
-40 5 0
-40 14 0
-41 6 0
-41 10 0
-42 6 0
-42 12 0
-43 6 0
-43 13 0
-44 6 0
-44 14 0
-45 7 0
-45 10 0
-46 7 0
-46 12 0
-47 7 0
-47 13 0
-48 7 0
-48 15 0
-49 8 0
-49 10 0
-50 8 0
-50 12 0
-51 8 0
-51 14 0
-52 8 0
-52 15 0
-16 -17 -18 -19 -20 0
-1 16 17 0
-1 16 18 0
-1 16 19 0
-1 16 20 0
-1 17 18 0
-1 17 19 0
-1 17 20 0
-1 18 19 0
-1 18 20 0
-1 19 20 0
-21 -22 -23 -24 -25 0
-2 21 22 0
-2 21 23 0
-2 21 24 0
-2 21 25 0
-2 22 23 0
-2 22 24 0
-2 22 25 0
-2 23 24 0
-2 23 25 0
-2 24 25 0
-26 -27 -28 -29 -30 0
-3 26 27 0
-3 26 28 0
-3 26 29 0
-3 26 30 0
-3 27 28 0
-3 27 29 0
-3 27 30 0
-3 28 29 0
-3 28 30 0
-3 29 30 0
-31 -32 -33 -34 -35 0
-4 31 32 0
-4 31 33 0
-4 31 34 0
-4 31 35 0
-4 32 33 0
-4 32 34 0
-4 32 35 0
-4 33 34 0
-4 33 35 0
-4 34 35 0
-36 -37 -38 -39 -40 0
-5 36 37 0
-5 36 38 0
-5 36 39 0
-5 36 40 0
-5 37 38 0
-5 37 39 0
-5 37 40 0
-5 38 39 0
-5 38 40 0
-5 39 40 0
-6 41 0
-6 42 0
-6 43 0
-6 44 0
-7 45 0
-7 46 0
-7 47 0
-7 48 0
-8 49 0
-8 50 0
-8 51 0
-8 52 0
-9 16 0
-9 21 0
-9 26 0
-9 31 0
-10 36 0
-10 41 0
-10 45 0
-10 49 0
-17 -22 -27 -32 -37 0
-11 17 22 0
-11 17 27 0
-11 17 32 0
-11 17 37 0
-11 22 27 0
-11 22 32 0
-11 22 37 0
-11 27 32 0
-11 27 37 0
-11 32 37 0
-18 -23 -38 -42 -46 0
-18 -23 -38 -42 -50 0
-18 -23 -38 -46 -50 0
-18 -23 -42 -46 -50 0
-18 -38 -42 -46 -50 0
-23 -38 -42 -46 -50 0
-12 18 23 38 0
-12 18 23 42 0
-12 18 23 46 0
-12 18 23 50 0
-12 18 38 42 0
-12 18 38 46 0
-12 18 38 50 0
-12 18 42 46 0
-12 18 42 50 0
-12 18 46 50 0
-12 23 38 42 0
-12 23 38 46 0
-12 23 38 50 0
-12 23 42 46 0
-12 23 42 50 0
-12 23 46 50 0
-12 38 42 46 0
-12 38 42 50 0
-12 38 46 50 0
-12 42 46 50 0
-19 -28 -33 -39 -43 0
-19 -28 -33 -39 -47 0
-19 -28 -33 -43 -47 0
-19 -28 -39 -43 -47 0
-19 -33 -39 -43 -47 0
-28 -33 -39 -43 -47 0
-13 19 28 33 0
-13 19 28 39 0
-13 19 28 43 0
-13 19 28 47 0
-13 19 33 39 0
-13 19 33 43 0
-13 19 33 47 0
-13 19 39 43 0
-13 19 39 47 0
-13 19 43 47 0
-13 28 33 39 0
-13 28 33 43 0
-13 28 33 47 0
-13 28 39 43 0
-13 28 39 47 0
-13 28 43 47 0
-13 33 39 43 0
-13 33 39 47 0
-13 33 43 47 0
-13 39 43 47 0
-24 -29 -34 -40 -44 0
-24 -29 -34 -40 -51 0
-24 -29 -34 -44 -51 0
-24 -29 -40 -44 -51 0
-24 -34 -40 -44 -51 0
-29 -34 -40 -44 -51 0
-14 24 29 34 0
-14 24 29 40 0
-14 24 29 44 0
-14 24 29 51 0
-14 24 34 40 0
-14 24 34 44 0
-14 24 34 51 0
-14 24 40 44 0
-14 24 40 51 0
-14 24 44 51 0
-14 29 34 40 0
-14 29 34 44 0
-14 29 34 51 0
-14 29 40 44 0
-14 29 40 51 0
-14 29 44 51 0
-14 34 40 44 0
-14 34 40 51 0
-14 34 44 51 0
-14 40 44 51 0
-20 -25 -30 -35 -48 0
-20 -25 -30 -35 -52 0
-20 -25 -30 -48 -52 0
-20 -25 -35 -48 -52 0
-20 -30 -35 -48 -52 0
-25 -30 -35 -48 -52 0
-15 20 25 30 0
-15 20 25 35 0
-15 20 25 48 0
-15 20 25 52 0
-15 20 30 35 0
-15 20 30 48 0
-15 20 30 52 0
-15 20 35 48 0
-15 20 35 52 0
-15 20 48 52 0
-15 25 30 35 0
-15 25 30 48 0
-15 25 30 52 0
-15 25 35 48 0
-15 25 35 52 0
-15 25 48 52 0
-15 30 35 48 0
-15 30 35 52 0
-15 30 48 52 0
-15 35 48 52 0
1 2 3 4 5 6 7 8 9 10 11 12 13 14 15 0
