p cnf 36 505
-9 1 0
-9 2 0
-10 1 0
-10 3 0
-11 1 0
-11 4 0
-12 1 0
-12 5 0
-13 1 0
-13 6 0
-14 1 0
-14 7 0
-15 1 0
-15 8 0
-16 2 0
-16 3 0
-17 2 0
-17 4 0
-18 2 0
-18 5 0
-19 2 0
-19 6 0
-20 2 0
-20 7 0
-21 2 0
-21 8 0
-22 3 0
-22 4 0
-23 3 0
-23 5 0
-24 3 0
-24 6 0
-25 3 0
-25 7 0
-26 3 0
-26 8 0
-27 4 0
-27 5 0
-28 4 0
-28 6 0
-29 4 0
-29 7 0
-30 4 0
-30 8 0
-31 5 0
-31 6 0
-32 5 0
-32 7 0
-33 5 0
-33 8 0
-34 6 0
-34 7 0
-35 6 0
-35 8 0
-36 7 0
-36 8 0
-9 -10 -11 -12 -13 0
-9 -10 -11 -12 -14 0
-9 -10 -11 -12 -15 0
-9 -10 -11 -13 -14 0
-9 -10 -11 -13 -15 0
-9 -10 -11 -14 -15 0
-9 -10 -12 -13 -14 0
-9 -10 -12 -13 -15 0
-9 -10 -12 -14 -15 0
-9 -10 -13 -14 -15 0
-9 -11 -12 -13 -14 0
-9 -11 -12 -13 -15 0
-9 -11 -12 -14 -15 0
-9 -11 -13 -14 -15 0
-9 -12 -13 -14 -15 0
-10 -11 -12 -13 -14 0
-10 -11 -12 -13 -15 0
-10 -11 -12 -14 -15 0
-10 -11 -13 -14 -15 0
-10 -12 -13 -14 -15 0
-11 -12 -13 -14 -15 0
-1 9 10 11 12 0
-1 9 10 11 13 0
-1 9 10 11 14 0
-1 9 10 11 15 0
-1 9 10 12 13 0
-1 9 10 12 14 0
-1 9 10 12 15 0
-1 9 10 13 14 0
-1 9 10 13 15 0
-1 9 10 14 15 0
-1 9 11 12 13 0
-1 9 11 12 14 0
-1 9 11 12 15 0
-1 9 11 13 14 0
-1 9 11 13 15 0
-1 9 11 14 15 0
-1 9 12 13 14 0
-1 9 12 13 15 0
-1 9 12 14 15 0
-1 9 13 14 15 0
-1 10 11 12 13 0
-1 10 11 12 14 0
-1 10 11 12 15 0
-1 10 11 13 14 0
-1 10 11 13 15 0
-1 10 11 14 15 0
-1 10 12 13 14 0
-1 10 12 13 15 0
-1 10 12 14 15 0
-1 10 13 14 15 0
-1 11 12 13 14 0
-1 11 12 13 15 0
-1 11 12 14 15 0
-1 11 13 14 15 0
-1 12 13 14 15 0
-9 -16 -17 -18 -19 0
-9 -16 -17 -18 -20 0
-9 -16 -17 -18 -21 0
-9 -16 -17 -19 -20 0
-9 -16 -17 -19 -21 0
-9 -16 -17 -20 -21 0
-9 -16 -18 -19 -20 0
-9 -16 -18 -19 -21 0
-9 -16 -18 -20 -21 0
-9 -16 -19 -20 -21 0
-9 -17 -18 -19 -20 0
-9 -17 -18 -19 -21 0
-9 -17 -18 -20 -21 0
-9 -17 -19 -20 -21 0
-9 -18 -19 -20 -21 0
-16 -17 -18 -19 -20 0
-16 -17 -18 -19 -21 0
-16 -17 -18 -20 -21 0
-16 -17 -19 -20 -21 0
-16 -18 -19 -20 -21 0
-17 -18 -19 -20 -21 0
-2 9 16 17 18 0
-2 9 16 17 19 0
-2 9 16 17 20 0
-2 9 16 17 21 0
-2 9 16 18 19 0
-2 9 16 18 20 0
-2 9 16 18 21 0
-2 9 16 19 20 0
-2 9 16 19 21 0
-2 9 16 20 21 0
-2 9 17 18 19 0
-2 9 17 18 20 0
-2 9 17 18 21 0
-2 9 17 19 20 0
-2 9 17 19 21 0
-2 9 17 20 21 0
-2 9 18 19 20 0
-2 9 18 19 21 0
-2 9 18 20 21 0
-2 9 19 20 21 0
-2 16 17 18 19 0
-2 16 17 18 20 0
-2 16 17 18 21 0
-2 16 17 19 20 0
-2 16 17 19 21 0
-2 16 17 20 21 0
-2 16 18 19 20 0
-2 16 18 19 21 0
-2 16 18 20 21 0
-2 16 19 20 21 0
-2 17 18 19 20 0
-2 17 18 19 21 0
-2 17 18 20 21 0
-2 17 19 20 21 0
-2 18 19 20 21 0
-10 -16 -22 -23 -24 0
-10 -16 -22 -23 -25 0
-10 -16 -22 -23 -26 0
-10 -16 -22 -24 -25 0
-10 -16 -22 -24 -26 0
-10 -16 -22 -25 -26 0
-10 -16 -23 -24 -25 0
-10 -16 -23 -24 -26 0
-10 -16 -23 -25 -26 0
-10 -16 -24 -25 -26 0
-10 -22 -23 -24 -25 0
-10 -22 -23 -24 -26 0
-10 -22 -23 -25 -26 0
-10 -22 -24 -25 -26 0
-10 -23 -24 -25 -26 0
-16 -22 -23 -24 -25 0
-16 -22 -23 -24 -26 0
-16 -22 -23 -25 -26 0
-16 -22 -24 -25 -26 0
-16 -23 -24 -25 -26 0
-22 -23 -24 -25 -26 0
-3 10 16 22 23 0
-3 10 16 22 24 0
-3 10 16 22 25 0
-3 10 16 22 26 0
-3 10 16 23 24 0
-3 10 16 23 25 0
-3 10 16 23 26 0
-3 10 16 24 25 0
-3 10 16 24 26 0
-3 10 16 25 26 0
-3 10 22 23 24 0
-3 10 22 23 25 0
-3 10 22 23 26 0
-3 10 22 24 25 0
-3 10 22 24 26 0
-3 10 22 25 26 0
-3 10 23 24 25 0
-3 10 23 24 26 0
-3 10 23 25 26 0
-3 10 24 25 26 0
-3 16 22 23 24 0
-3 16 22 23 25 0
-3 16 22 23 26 0
-3 16 22 24 25 0
-3 16 22 24 26 0
-3 16 22 25 26 0
-3 16 23 24 25 0
-3 16 23 24 26 0
-3 16 23 25 26 0
-3 16 24 25 26 0
-3 22 23 24 25 0
-3 22 23 24 26 0
-3 22 23 25 26 0
-3 22 24 25 26 0
-3 23 24 25 26 0
-11 -17 -22 -27 -28 0
-11 -17 -22 -27 -29 0
-11 -17 -22 -27 -30 0
-11 -17 -22 -28 -29 0
-11 -17 -22 -28 -30 0
-11 -17 -22 -29 -30 0
-11 -17 -27 -28 -29 0
-11 -17 -27 -28 -30 0
-11 -17 -27 -29 -30 0
-11 -17 -28 -29 -30 0
-11 -22 -27 -28 -29 0
-11 -22 -27 -28 -30 0
-11 -22 -27 -29 -30 0
-11 -22 -28 -29 -30 0
-11 -27 -28 -29 -30 0
-17 -22 -27 -28 -29 0
-17 -22 -27 -28 -30 0
-17 -22 -27 -29 -30 0
-17 -22 -28 -29 -30 0
-17 -27 -28 -29 -30 0
-22 -27 -28 -29 -30 0
-4 11 17 22 27 0
-4 11 17 22 28 0
-4 11 17 22 29 0
-4 11 17 22 30 0
-4 11 17 27 28 0
-4 11 17 27 29 0
-4 11 17 27 30 0
-4 11 17 28 29 0
-4 11 17 28 30 0
-4 11 17 29 30 0
-4 11 22 27 28 0
-4 11 22 27 29 0
-4 11 22 27 30 0
-4 11 22 28 29 0
-4 11 22 28 30 0
-4 11 22 29 30 0
-4 11 27 28 29 0
-4 11 27 28 30 0
-4 11 27 29 30 0
-4 11 28 29 30 0
-4 17 22 27 28 0
-4 17 22 27 29 0
-4 17 22 27 30 0
-4 17 22 28 29 0
-4 17 22 28 30 0
-4 17 22 29 30 0
-4 17 27 28 29 0
-4 17 27 28 30 0
-4 17 27 29 30 0
-4 17 28 29 30 0
-4 22 27 28 29 0
-4 22 27 28 30 0
-4 22 27 29 30 0
-4 22 28 29 30 0
-4 27 28 29 30 0
-12 -18 -23 -27 -31 0
-12 -18 -23 -27 -32 0
-12 -18 -23 -27 -33 0
-12 -18 -23 -31 -32 0
-12 -18 -23 -31 -33 0
-12 -18 -23 -32 -33 0
-12 -18 -27 -31 -32 0
-12 -18 -27 -31 -33 0
-12 -18 -27 -32 -33 0
-12 -18 -31 -32 -33 0
-12 -23 -27 -31 -32 0
-12 -23 -27 -31 -33 0
-12 -23 -27 -32 -33 0
-12 -23 -31 -32 -33 0
-12 -27 -31 -32 -33 0
-18 -23 -27 -31 -32 0
-18 -23 -27 -31 -33 0
-18 -23 -27 -32 -33 0
-18 -23 -31 -32 -33 0
-18 -27 -31 -32 -33 0
-23 -27 -31 -32 -33 0
-5 12 18 23 27 0
-5 12 18 23 31 0
-5 12 18 23 32 0
-5 12 18 23 33 0
-5 12 18 27 31 0
-5 12 18 27 32 0
-5 12 18 27 33 0
-5 12 18 31 32 0
-5 12 18 31 33 0
-5 12 18 32 33 0
-5 12 23 27 31 0
-5 12 23 27 32 0
-5 12 23 27 33 0
-5 12 23 31 32 0
-5 12 23 31 33 0
-5 12 23 32 33 0
-5 12 27 31 32 0
-5 12 27 31 33 0
-5 12 27 32 33 0
-5 12 31 32 33 0
-5 18 23 27 31 0
-5 18 23 27 32 0
-5 18 23 27 33 0
-5 18 23 31 32 0
-5 18 23 31 33 0
-5 18 23 32 33 0
-5 18 27 31 32 0
-5 18 27 31 33 0
-5 18 27 32 33 0
-5 18 31 32 33 0
-5 23 27 31 32 0
-5 23 27 31 33 0
-5 23 27 32 33 0
-5 23 31 32 33 0
-5 27 31 32 33 0
-13 -19 -24 -28 -31 0
-13 -19 -24 -28 -34 0
-13 -19 -24 -28 -35 0
-13 -19 -24 -31 -34 0
-13 -19 -24 -31 -35 0
-13 -19 -24 -34 -35 0
-13 -19 -28 -31 -34 0
-13 -19 -28 -31 -35 0
-13 -19 -28 -34 -35 0
-13 -19 -31 -34 -35 0
-13 -24 -28 -31 -34 0
-13 -24 -28 -31 -35 0
-13 -24 -28 -34 -35 0
-13 -24 -31 -34 -35 0
-13 -28 -31 -34 -35 0
-19 -24 -28 -31 -34 0
-19 -24 -28 -31 -35 0
-19 -24 -28 -34 -35 0
-19 -24 -31 -34 -35 0
-19 -28 -31 -34 -35 0
-24 -28 -31 -34 -35 0
-6 13 19 24 28 0
-6 13 19 24 31 0
-6 13 19 24 34 0
-6 13 19 24 35 0
-6 13 19 28 31 0
-6 13 19 28 34 0
-6 13 19 28 35 0
-6 13 19 31 34 0
-6 13 19 31 35 0
-6 13 19 34 35 0
-6 13 24 28 31 0
-6 13 24 28 34 0
-6 13 24 28 35 0
-6 13 24 31 34 0
-6 13 24 31 35 0
-6 13 24 34 35 0
-6 13 28 31 34 0
-6 13 28 31 35 0
-6 13 28 34 35 0
-6 13 31 34 35 0
-6 19 24 28 31 0
-6 19 24 28 34 0
-6 19 24 28 35 0
-6 19 24 31 34 0
-6 19 24 31 35 0
-6 19 24 34 35 0
-6 19 28 31 34 0
-6 19 28 31 35 0
-6 19 28 34 35 0
-6 19 31 34 35 0
-6 24 28 31 34 0
-6 24 28 31 35 0
-6 24 28 34 35 0
-6 24 31 34 35 0
-6 28 31 34 35 0
-14 -20 -25 -29 -32 0
-14 -20 -25 -29 -34 0
-14 -20 -25 -29 -36 0
-14 -20 -25 -32 -34 0
-14 -20 -25 -32 -36 0
-14 -20 -25 -34 -36 0
-14 -20 -29 -32 -34 0
-14 -20 -29 -32 -36 0
-14 -20 -29 -34 -36 0
-14 -20 -32 -34 -36 0
-14 -25 -29 -32 -34 0
-14 -25 -29 -32 -36 0
-14 -25 -29 -34 -36 0
-14 -25 -32 -34 -36 0
-14 -29 -32 -34 -36 0
-20 -25 -29 -32 -34 0
-20 -25 -29 -32 -36 0
-20 -25 -29 -34 -36 0
-20 -25 -32 -34 -36 0
-20 -29 -32 -34 -36 0
-25 -29 -32 -34 -36 0
-7 14 20 25 29 0
-7 14 20 25 32 0
-7 14 20 25 34 0
-7 14 20 25 36 0
-7 14 20 29 32 0
-7 14 20 29 34 0
-7 14 20 29 36 0
-7 14 20 32 34 0
-7 14 20 32 36 0
-7 14 20 34 36 0
-7 14 25 29 32 0
-7 14 25 29 34 0
-7 14 25 29 36 0
-7 14 25 32 34 0
-7 14 25 32 36 0
-7 14 25 34 36 0
-7 14 29 32 34 0
-7 14 29 32 36 0
-7 14 29 34 36 0
-7 14 32 34 36 0
-7 20 25 29 32 0
-7 20 25 29 34 0
-7 20 25 29 36 0
-7 20 25 32 34 0
-7 20 25 32 36 0
-7 20 25 34 36 0
-7 20 29 32 34 0
-7 20 29 32 36 0
-7 20 29 34 36 0
-7 20 32 34 36 0
-7 25 29 32 34 0
-7 25 29 32 36 0
-7 25 29 34 36 0
-7 25 32 34 36 0
-7 29 32 34 36 0
-15 -21 -26 -30 -33 0
-15 -21 -26 -30 -35 0
-15 -21 -26 -30 -36 0
-15 -21 -26 -33 -35 0
-15 -21 -26 -33 -36 0
-15 -21 -26 -35 -36 0
-15 -21 -30 -33 -35 0
-15 -21 -30 -33 -36 0
-15 -21 -30 -35 -36 0
-15 -21 -33 -35 -36 0
-15 -26 -30 -33 -35 0
-15 -26 -30 -33 -36 0
-15 -26 -30 -35 -36 0
-15 -26 -33 -35 -36 0
-15 -30 -33 -35 -36 0
-21 -26 -30 -33 -35 0
-21 -26 -30 -33 -36 0
-21 -26 -30 -35 -36 0
-21 -26 -33 -35 -36 0
-21 -30 -33 -35 -36 0
-26 -30 -33 -35 -36 0
-8 15 21 26 30 0
-8 15 21 26 33 0
-8 15 21 26 35 0
-8 15 21 26 36 0
-8 15 21 30 33 0
-8 15 21 30 35 0
-8 15 21 30 36 0
-8 15 21 33 35 0
-8 15 21 33 36 0
-8 15 21 35 36 0
-8 15 26 30 33 0
-8 15 26 30 35 0
-8 15 26 30 36 0
-8 15 26 33 35 0
-8 15 26 33 36 0
-8 15 26 35 36 0
-8 15 30 33 35 0
-8 15 30 33 36 0
-8 15 30 35 36 0
-8 15 33 35 36 0
-8 21 26 30 33 0
-8 21 26 30 35 0
-8 21 26 30 36 0
-8 21 26 33 35 0
-8 21 26 33 36 0
-8 21 26 35 36 0
-8 21 30 33 35 0
-8 21 30 33 36 0
-8 21 30 35 36 0
-8 21 33 35 36 0
-8 26 30 33 35 0
-8 26 30 33 36 0
-8 26 30 35 36 0
-8 26 33 35 36 0
-8 30 33 35 36 0
1 2 3 4 5 6 7 8 0
