# the graph of Openmath/Proofs/BipartiteFive.lean: bipartite 5-regular, 104 vertices, no pair
0 3
0 4
0 5
0 7
0 11
1 3
1 4
1 5
1 7
1 11
2 3
2 4
2 5
2 9
2 12
3 6
3 8
4 6
4 8
5 6
5 10
6 7
6 9
7 8
7 10
8 9
8 12
9 10
9 22
10 11
10 12
11 24
11 50
12 25
12 51
13 16
13 17
13 18
13 20
13 24
14 16
14 17
14 18
14 20
14 24
15 16
15 17
15 18
15 22
15 25
16 19
16 21
17 19
17 21
18 19
18 23
19 20
19 22
20 21
20 23
21 22
21 25
22 23
23 24
23 25
24 37
25 90
26 29
26 30
26 31
26 33
26 37
27 29
27 30
27 31
27 33
27 37
28 29
28 30
28 31
28 35
28 38
29 32
29 34
30 32
30 34
31 32
31 36
32 33
32 35
33 34
33 36
34 35
34 38
35 36
35 48
36 37
36 38
37 50
38 51
38 77
39 42
39 43
39 44
39 46
39 50
40 42
40 43
40 44
40 46
40 50
41 42
41 43
41 44
41 48
41 51
42 45
42 47
43 45
43 47
44 45
44 49
45 46
45 48
46 47
46 49
47 48
47 51
48 49
49 50
49 51
52 55
52 56
52 57
52 59
52 63
53 55
53 56
53 57
53 59
53 63
54 55
54 56
54 57
54 61
54 64
55 58
55 60
56 58
56 60
57 58
57 62
58 59
58 61
59 60
59 62
60 61
60 64
61 62
61 74
62 63
62 64
63 76
63 102
64 77
64 103
65 68
65 69
65 70
65 72
65 76
66 68
66 69
66 70
66 72
66 76
67 68
67 69
67 70
67 74
67 77
68 71
68 73
69 71
69 73
70 71
70 75
71 72
71 74
72 73
72 75
73 74
73 77
74 75
75 76
75 77
76 89
78 81
78 82
78 83
78 85
78 89
79 81
79 82
79 83
79 85
79 89
80 81
80 82
80 83
80 87
80 90
81 84
81 86
82 84
82 86
83 84
83 88
84 85
84 87
85 86
85 88
86 87
86 90
87 88
87 100
88 89
88 90
89 102
90 103
91 94
91 95
91 96
91 98
91 102
92 94
92 95
92 96
92 98
92 102
93 94
93 95
93 96
93 100
93 103
94 97
94 99
95 97
95 99
96 97
96 101
97 98
97 100
98 99
98 101
99 100
99 103
100 101
101 102
101 103
