# 32-vertex 5-regular pair-free graph, Openmath/Proofs/RegularFive.lean, 80 edges
0 3
0 4
0 5
0 9
0 10
1 3
1 4
1 6
1 7
1 8
2 3
2 5
2 6
2 7
2 18
3 6
3 7
4 5
4 6
4 7
5 6
5 7
8 11
8 12
8 13
8 24
9 11
9 12
9 14
9 15
10 11
10 13
10 14
10 15
11 14
11 15
12 13
12 14
12 15
13 14
13 15
16 19
16 20
16 21
16 25
16 26
17 19
17 20
17 22
17 23
17 24
18 19
18 21
18 22
18 23
19 22
19 23
20 21
20 22
20 23
21 22
21 23
24 27
24 28
24 29
25 27
25 28
25 30
25 31
26 27
26 29
26 30
26 31
27 30
27 31
28 29
28 30
28 31
29 30
29 31
