p cnf 56 301
-17 1 0
-17 9 0
-18 1 0
-18 11 0
-19 1 0
-19 12 0
-20 1 0
-20 13 0
-21 1 0
-21 15 0
-22 2 0
-22 9 0
-23 2 0
-23 11 0
-24 2 0
-24 12 0
-25 2 0
-25 14 0
-26 2 0
-26 15 0
-27 3 0
-27 9 0
-28 3 0
-28 11 0
-29 3 0
-29 13 0
-30 3 0
-30 14 0
-31 3 0
-31 15 0
-32 4 0
-32 9 0
-33 4 0
-33 11 0
-34 4 0
-34 13 0
-35 4 0
-35 14 0
-36 4 0
-36 15 0
-37 5 0
-37 10 0
-38 5 0
-38 11 0
-39 5 0
-39 12 0
-40 5 0
-40 13 0
-41 5 0
-41 14 0
-42 6 0
-42 10 0
-43 6 0
-43 12 0
-44 6 0
-44 13 0
-45 6 0
-45 14 0
-46 7 0
-46 10 0
-47 7 0
-47 12 0
-48 7 0
-48 13 0
-49 7 0
-49 15 0
-50 8 0
-50 10 0
-51 8 0
-51 12 0
-52 8 0
-52 14 0
-53 8 0
-53 15 0
-54 9 0
-54 16 0
-55 10 0
-55 16 0
-56 11 0
-56 16 0
-17 -18 -19 -20 -21 0
-1 17 18 0
-1 17 19 0
-1 17 20 0
-1 17 21 0
-1 18 19 0
-1 18 20 0
-1 18 21 0
-1 19 20 0
-1 19 21 0
-1 20 21 0
-22 -23 -24 -25 -26 0
-2 22 23 0
-2 22 24 0
-2 22 25 0
-2 22 26 0
-2 23 24 0
-2 23 25 0
-2 23 26 0
-2 24 25 0
-2 24 26 0
-2 25 26 0
-27 -28 -29 -30 -31 0
-3 27 28 0
-3 27 29 0
-3 27 30 0
-3 27 31 0
-3 28 29 0
-3 28 30 0
-3 28 31 0
-3 29 30 0
-3 29 31 0
-3 30 31 0
-32 -33 -34 -35 -36 0
-4 32 33 0
-4 32 34 0
-4 32 35 0
-4 32 36 0
-4 33 34 0
-4 33 35 0
-4 33 36 0
-4 34 35 0
-4 34 36 0
-4 35 36 0
-37 -38 -39 -40 -41 0
-5 37 38 0
-5 37 39 0
-5 37 40 0
-5 37 41 0
-5 38 39 0
-5 38 40 0
-5 38 41 0
-5 39 40 0
-5 39 41 0
-5 40 41 0
-6 42 0
-6 43 0
-6 44 0
-6 45 0
-7 46 0
-7 47 0
-7 48 0
-7 49 0
-8 50 0
-8 51 0
-8 52 0
-8 53 0
-17 -22 -27 -32 -54 0
-9 17 22 0
-9 17 27 0
-9 17 32 0
-9 17 54 0
-9 22 27 0
-9 22 32 0
-9 22 54 0
-9 27 32 0
-9 27 54 0
-9 32 54 0
-37 -42 -46 -50 -55 0
-10 37 42 0
-10 37 46 0
-10 37 50 0
-10 37 55 0
-10 42 46 0
-10 42 50 0
-10 42 55 0
-10 46 50 0
-10 46 55 0
-10 50 55 0
-18 -23 -28 -33 -38 0
-18 -23 -28 -33 -56 0
-18 -23 -28 -38 -56 0
-18 -23 -33 -38 -56 0
-18 -28 -33 -38 -56 0
-23 -28 -33 -38 -56 0
-11 18 23 28 0
-11 18 23 33 0
-11 18 23 38 0
-11 18 23 56 0
-11 18 28 33 0
-11 18 28 38 0
-11 18 28 56 0
-11 18 33 38 0
-11 18 33 56 0
-11 18 38 56 0
-11 23 28 33 0
-11 23 28 38 0
-11 23 28 56 0
-11 23 33 38 0
-11 23 33 56 0
-11 23 38 56 0
-11 28 33 38 0
-11 28 33 56 0
-11 28 38 56 0
-11 33 38 56 0
-19 -24 -39 -43 -47 0
-19 -24 -39 -43 -51 0
-19 -24 -39 -47 -51 0
-19 -24 -43 -47 -51 0
-19 -39 -43 -47 -51 0
-24 -39 -43 -47 -51 0
-12 19 24 39 0
-12 19 24 43 0
-12 19 24 47 0
-12 19 24 51 0
-12 19 39 43 0
-12 19 39 47 0
-12 19 39 51 0
-12 19 43 47 0
-12 19 43 51 0
-12 19 47 51 0
-12 24 39 43 0
-12 24 39 47 0
-12 24 39 51 0
-12 24 43 47 0
-12 24 43 51 0
-12 24 47 51 0
-12 39 43 47 0
-12 39 43 51 0
-12 39 47 51 0
-12 43 47 51 0
-20 -29 -34 -40 -44 0
-20 -29 -34 -40 -48 0
-20 -29 -34 -44 -48 0
-20 -29 -40 -44 -48 0
-20 -34 -40 -44 -48 0
-29 -34 -40 -44 -48 0
-13 20 29 34 0
-13 20 29 40 0
-13 20 29 44 0
-13 20 29 48 0
-13 20 34 40 0
-13 20 34 44 0
-13 20 34 48 0
-13 20 40 44 0
-13 20 40 48 0
-13 20 44 48 0
-13 29 34 40 0
-13 29 34 44 0
-13 29 34 48 0
-13 29 40 44 0
-13 29 40 48 0
-13 29 44 48 0
-13 34 40 44 0
-13 34 40 48 0
-13 34 44 48 0
-13 40 44 48 0
-25 -30 -35 -41 -45 0
-25 -30 -35 -41 -52 0
-25 -30 -35 -45 -52 0
-25 -30 -41 -45 -52 0
-25 -35 -41 -45 -52 0
-30 -35 -41 -45 -52 0
-14 25 30 35 0
-14 25 30 41 0
-14 25 30 45 0
-14 25 30 52 0
-14 25 35 41 0
-14 25 35 45 0
-14 25 35 52 0
-14 25 41 45 0
-14 25 41 52 0
-14 25 45 52 0
-14 30 35 41 0
-14 30 35 45 0
-14 30 35 52 0
-14 30 41 45 0
-14 30 41 52 0
-14 30 45 52 0
-14 35 41 45 0
-14 35 41 52 0
-14 35 45 52 0
-14 41 45 52 0
-21 -26 -31 -36 -49 0
-21 -26 -31 -36 -53 0
-21 -26 -31 -49 -53 0
-21 -26 -36 -49 -53 0
-21 -31 -36 -49 -53 0
-26 -31 -36 -49 -53 0
-15 21 26 31 0
-15 21 26 36 0
-15 21 26 49 0
-15 21 26 53 0
-15 21 31 36 0
-15 21 31 49 0
-15 21 31 53 0
-15 21 36 49 0
-15 21 36 53 0
-15 21 49 53 0
-15 26 31 36 0
-15 26 31 49 0
-15 26 31 53 0
-15 26 36 49 0
-15 26 36 53 0
-15 26 49 53 0
-15 31 36 49 0
-15 31 36 53 0
-15 31 49 53 0
-15 36 49 53 0
-16 0
1 2 3 4 5 6 7 8 9 10 11 12 13 14 15 16 0
