p cnf 60 325
-18 1 0
-18 9 0
-19 1 0
-19 11 0
-20 1 0
-20 12 0
-21 1 0
-21 13 0
-22 1 0
-22 15 0
-23 2 0
-23 9 0
-24 2 0
-24 11 0
-25 2 0
-25 12 0
-26 2 0
-26 14 0
-27 2 0
-27 15 0
-28 3 0
-28 9 0
-29 3 0
-29 11 0
-30 3 0
-30 13 0
-31 3 0
-31 14 0
-32 3 0
-32 15 0
-33 4 0
-33 9 0
-34 4 0
-34 11 0
-35 4 0
-35 13 0
-36 4 0
-36 14 0
-37 4 0
-37 15 0
-38 5 0
-38 10 0
-39 5 0
-39 11 0
-40 5 0
-40 12 0
-41 5 0
-41 13 0
-42 5 0
-42 14 0
-43 6 0
-43 10 0
-44 6 0
-44 12 0
-45 6 0
-45 13 0
-46 6 0
-46 14 0
-47 6 0
-47 17 0
-48 7 0
-48 10 0
-49 7 0
-49 12 0
-50 7 0
-50 13 0
-51 7 0
-51 15 0
-52 7 0
-52 17 0
-53 8 0
-53 10 0
-54 8 0
-54 12 0
-55 8 0
-55 14 0
-56 8 0
-56 15 0
-57 9 0
-57 16 0
-58 10 0
-58 16 0
-59 11 0
-59 16 0
-60 16 0
-60 17 0
-18 -19 -20 -21 -22 0
-1 18 19 0
-1 18 20 0
-1 18 21 0
-1 18 22 0
-1 19 20 0
-1 19 21 0
-1 19 22 0
-1 20 21 0
-1 20 22 0
-1 21 22 0
-23 -24 -25 -26 -27 0
-2 23 24 0
-2 23 25 0
-2 23 26 0
-2 23 27 0
-2 24 25 0
-2 24 26 0
-2 24 27 0
-2 25 26 0
-2 25 27 0
-2 26 27 0
-28 -29 -30 -31 -32 0
-3 28 29 0
-3 28 30 0
-3 28 31 0
-3 28 32 0
-3 29 30 0
-3 29 31 0
-3 29 32 0
-3 30 31 0
-3 30 32 0
-3 31 32 0
-33 -34 -35 -36 -37 0
-4 33 34 0
-4 33 35 0
-4 33 36 0
-4 33 37 0
-4 34 35 0
-4 34 36 0
-4 34 37 0
-4 35 36 0
-4 35 37 0
-4 36 37 0
-38 -39 -40 -41 -42 0
-5 38 39 0
-5 38 40 0
-5 38 41 0
-5 38 42 0
-5 39 40 0
-5 39 41 0
-5 39 42 0
-5 40 41 0
-5 40 42 0
-5 41 42 0
-43 -44 -45 -46 -47 0
-6 43 44 0
-6 43 45 0
-6 43 46 0
-6 43 47 0
-6 44 45 0
-6 44 46 0
-6 44 47 0
-6 45 46 0
-6 45 47 0
-6 46 47 0
-48 -49 -50 -51 -52 0
-7 48 49 0
-7 48 50 0
-7 48 51 0
-7 48 52 0
-7 49 50 0
-7 49 51 0
-7 49 52 0
-7 50 51 0
-7 50 52 0
-7 51 52 0
-8 53 0
-8 54 0
-8 55 0
-8 56 0
-18 -23 -28 -33 -57 0
-9 18 23 0
-9 18 28 0
-9 18 33 0
-9 18 57 0
-9 23 28 0
-9 23 33 0
-9 23 57 0
-9 28 33 0
-9 28 57 0
-9 33 57 0
-38 -43 -48 -53 -58 0
-10 38 43 0
-10 38 48 0
-10 38 53 0
-10 38 58 0
-10 43 48 0
-10 43 53 0
-10 43 58 0
-10 48 53 0
-10 48 58 0
-10 53 58 0
-19 -24 -29 -34 -39 0
-19 -24 -29 -34 -59 0
-19 -24 -29 -39 -59 0
-19 -24 -34 -39 -59 0
-19 -29 -34 -39 -59 0
-24 -29 -34 -39 -59 0
-11 19 24 29 0
-11 19 24 34 0
-11 19 24 39 0
-11 19 24 59 0
-11 19 29 34 0
-11 19 29 39 0
-11 19 29 59 0
-11 19 34 39 0
-11 19 34 59 0
-11 19 39 59 0
-11 24 29 34 0
-11 24 29 39 0
-11 24 29 59 0
-11 24 34 39 0
-11 24 34 59 0
-11 24 39 59 0
-11 29 34 39 0
-11 29 34 59 0
-11 29 39 59 0
-11 34 39 59 0
-20 -25 -40 -44 -49 0
-20 -25 -40 -44 -54 0
-20 -25 -40 -49 -54 0
-20 -25 -44 -49 -54 0
-20 -40 -44 -49 -54 0
-25 -40 -44 -49 -54 0
-12 20 25 40 0
-12 20 25 44 0
-12 20 25 49 0
-12 20 25 54 0
-12 20 40 44 0
-12 20 40 49 0
-12 20 40 54 0
-12 20 44 49 0
-12 20 44 54 0
-12 20 49 54 0
-12 25 40 44 0
-12 25 40 49 0
-12 25 40 54 0
-12 25 44 49 0
-12 25 44 54 0
-12 25 49 54 0
-12 40 44 49 0
-12 40 44 54 0
-12 40 49 54 0
-12 44 49 54 0
-21 -30 -35 -41 -45 0
-21 -30 -35 -41 -50 0
-21 -30 -35 -45 -50 0
-21 -30 -41 -45 -50 0
-21 -35 -41 -45 -50 0
-30 -35 -41 -45 -50 0
-13 21 30 35 0
-13 21 30 41 0
-13 21 30 45 0
-13 21 30 50 0
-13 21 35 41 0
-13 21 35 45 0
-13 21 35 50 0
-13 21 41 45 0
-13 21 41 50 0
-13 21 45 50 0
-13 30 35 41 0
-13 30 35 45 0
-13 30 35 50 0
-13 30 41 45 0
-13 30 41 50 0
-13 30 45 50 0
-13 35 41 45 0
-13 35 41 50 0
-13 35 45 50 0
-13 41 45 50 0
-26 -31 -36 -42 -46 0
-26 -31 -36 -42 -55 0
-26 -31 -36 -46 -55 0
-26 -31 -42 -46 -55 0
-26 -36 -42 -46 -55 0
-31 -36 -42 -46 -55 0
-14 26 31 36 0
-14 26 31 42 0
-14 26 31 46 0
-14 26 31 55 0
-14 26 36 42 0
-14 26 36 46 0
-14 26 36 55 0
-14 26 42 46 0
-14 26 42 55 0
-14 26 46 55 0
-14 31 36 42 0
-14 31 36 46 0
-14 31 36 55 0
-14 31 42 46 0
-14 31 42 55 0
-14 31 46 55 0
-14 36 42 46 0
-14 36 42 55 0
-14 36 46 55 0
-14 42 46 55 0
-22 -27 -32 -37 -51 0
-22 -27 -32 -37 -56 0
-22 -27 -32 -51 -56 0
-22 -27 -37 -51 -56 0
-22 -32 -37 -51 -56 0
-27 -32 -37 -51 -56 0
-15 22 27 32 0
-15 22 27 37 0
-15 22 27 51 0
-15 22 27 56 0
-15 22 32 37 0
-15 22 32 51 0
-15 22 32 56 0
-15 22 37 51 0
-15 22 37 56 0
-15 22 51 56 0
-15 27 32 37 0
-15 27 32 51 0
-15 27 32 56 0
-15 27 37 51 0
-15 27 37 56 0
-15 27 51 56 0
-15 32 37 51 0
-15 32 37 56 0
-15 32 51 56 0
-15 37 51 56 0
-16 57 0
-16 58 0
-16 59 0
-16 60 0
-17 0
1 2 3 4 5 6 7 8 9 10 11 12 13 14 15 16 17 0
