p cnf 64 365
-19 1 0
-19 9 0
-20 1 0
-20 11 0
-21 1 0
-21 12 0
-22 1 0
-22 13 0
-23 1 0
-23 15 0
-24 2 0
-24 9 0
-25 2 0
-25 11 0
-26 2 0
-26 12 0
-27 2 0
-27 14 0
-28 2 0
-28 15 0
-29 3 0
-29 9 0
-30 3 0
-30 11 0
-31 3 0
-31 13 0
-32 3 0
-32 14 0
-33 3 0
-33 15 0
-34 4 0
-34 9 0
-35 4 0
-35 11 0
-36 4 0
-36 13 0
-37 4 0
-37 14 0
-38 4 0
-38 15 0
-39 5 0
-39 10 0
-40 5 0
-40 11 0
-41 5 0
-41 12 0
-42 5 0
-42 13 0
-43 5 0
-43 14 0
-44 6 0
-44 10 0
-45 6 0
-45 12 0
-46 6 0
-46 13 0
-47 6 0
-47 14 0
-48 6 0
-48 17 0
-49 7 0
-49 10 0
-50 7 0
-50 12 0
-51 7 0
-51 13 0
-52 7 0
-52 15 0
-53 7 0
-53 17 0
-54 8 0
-54 10 0
-55 8 0
-55 12 0
-56 8 0
-56 14 0
-57 8 0
-57 15 0
-58 9 0
-58 16 0
-59 9 0
-59 18 0
-60 10 0
-60 16 0
-61 10 0
-61 18 0
-62 11 0
-62 16 0
-63 16 0
-63 17 0
-64 17 0
-64 18 0
-19 -20 -21 -22 -23 0
-1 19 20 0
-1 19 21 0
-1 19 22 0
-1 19 23 0
-1 20 21 0
-1 20 22 0
-1 20 23 0
-1 21 22 0
-1 21 23 0
-1 22 23 0
-24 -25 -26 -27 -28 0
-2 24 25 0
-2 24 26 0
-2 24 27 0
-2 24 28 0
-2 25 26 0
-2 25 27 0
-2 25 28 0
-2 26 27 0
-2 26 28 0
-2 27 28 0
-29 -30 -31 -32 -33 0
-3 29 30 0
-3 29 31 0
-3 29 32 0
-3 29 33 0
-3 30 31 0
-3 30 32 0
-3 30 33 0
-3 31 32 0
-3 31 33 0
-3 32 33 0
-34 -35 -36 -37 -38 0
-4 34 35 0
-4 34 36 0
-4 34 37 0
-4 34 38 0
-4 35 36 0
-4 35 37 0
-4 35 38 0
-4 36 37 0
-4 36 38 0
-4 37 38 0
-39 -40 -41 -42 -43 0
-5 39 40 0
-5 39 41 0
-5 39 42 0
-5 39 43 0
-5 40 41 0
-5 40 42 0
-5 40 43 0
-5 41 42 0
-5 41 43 0
-5 42 43 0
-44 -45 -46 -47 -48 0
-6 44 45 0
-6 44 46 0
-6 44 47 0
-6 44 48 0
-6 45 46 0
-6 45 47 0
-6 45 48 0
-6 46 47 0
-6 46 48 0
-6 47 48 0
-49 -50 -51 -52 -53 0
-7 49 50 0
-7 49 51 0
-7 49 52 0
-7 49 53 0
-7 50 51 0
-7 50 52 0
-7 50 53 0
-7 51 52 0
-7 51 53 0
-7 52 53 0
-8 54 0
-8 55 0
-8 56 0
-8 57 0
-19 -24 -29 -34 -58 0
-19 -24 -29 -34 -59 0
-19 -24 -29 -58 -59 0
-19 -24 -34 -58 -59 0
-19 -29 -34 -58 -59 0
-24 -29 -34 -58 -59 0
-9 19 24 29 0
-9 19 24 34 0
-9 19 24 58 0
-9 19 24 59 0
-9 19 29 34 0
-9 19 29 58 0
-9 19 29 59 0
-9 19 34 58 0
-9 19 34 59 0
-9 19 58 59 0
-9 24 29 34 0
-9 24 29 58 0
-9 24 29 59 0
-9 24 34 58 0
-9 24 34 59 0
-9 24 58 59 0
-9 29 34 58 0
-9 29 34 59 0
-9 29 58 59 0
-9 34 58 59 0
-39 -44 -49 -54 -60 0
-39 -44 -49 -54 -61 0
-39 -44 -49 -60 -61 0
-39 -44 -54 -60 -61 0
-39 -49 -54 -60 -61 0
-44 -49 -54 -60 -61 0
-10 39 44 49 0
-10 39 44 54 0
-10 39 44 60 0
-10 39 44 61 0
-10 39 49 54 0
-10 39 49 60 0
-10 39 49 61 0
-10 39 54 60 0
-10 39 54 61 0
-10 39 60 61 0
-10 44 49 54 0
-10 44 49 60 0
-10 44 49 61 0
-10 44 54 60 0
-10 44 54 61 0
-10 44 60 61 0
-10 49 54 60 0
-10 49 54 61 0
-10 49 60 61 0
-10 54 60 61 0
-20 -25 -30 -35 -40 0
-20 -25 -30 -35 -62 0
-20 -25 -30 -40 -62 0
-20 -25 -35 -40 -62 0
-20 -30 -35 -40 -62 0
-25 -30 -35 -40 -62 0
-11 20 25 30 0
-11 20 25 35 0
-11 20 25 40 0
-11 20 25 62 0
-11 20 30 35 0
-11 20 30 40 0
-11 20 30 62 0
-11 20 35 40 0
-11 20 35 62 0
-11 20 40 62 0
-11 25 30 35 0
-11 25 30 40 0
-11 25 30 62 0
-11 25 35 40 0
-11 25 35 62 0
-11 25 40 62 0
-11 30 35 40 0
-11 30 35 62 0
-11 30 40 62 0
-11 35 40 62 0
-21 -26 -41 -45 -50 0
-21 -26 -41 -45 -55 0
-21 -26 -41 -50 -55 0
-21 -26 -45 -50 -55 0
-21 -41 -45 -50 -55 0
-26 -41 -45 -50 -55 0
-12 21 26 41 0
-12 21 26 45 0
-12 21 26 50 0
-12 21 26 55 0
-12 21 41 45 0
-12 21 41 50 0
-12 21 41 55 0
-12 21 45 50 0
-12 21 45 55 0
-12 21 50 55 0
-12 26 41 45 0
-12 26 41 50 0
-12 26 41 55 0
-12 26 45 50 0
-12 26 45 55 0
-12 26 50 55 0
-12 41 45 50 0
-12 41 45 55 0
-12 41 50 55 0
-12 45 50 55 0
-22 -31 -36 -42 -46 0
-22 -31 -36 -42 -51 0
-22 -31 -36 -46 -51 0
-22 -31 -42 -46 -51 0
-22 -36 -42 -46 -51 0
-31 -36 -42 -46 -51 0
-13 22 31 36 0
-13 22 31 42 0
-13 22 31 46 0
-13 22 31 51 0
-13 22 36 42 0
-13 22 36 46 0
-13 22 36 51 0
-13 22 42 46 0
-13 22 42 51 0
-13 22 46 51 0
-13 31 36 42 0
-13 31 36 46 0
-13 31 36 51 0
-13 31 42 46 0
-13 31 42 51 0
-13 31 46 51 0
-13 36 42 46 0
-13 36 42 51 0
-13 36 46 51 0
-13 42 46 51 0
-27 -32 -37 -43 -47 0
-27 -32 -37 -43 -56 0
-27 -32 -37 -47 -56 0
-27 -32 -43 -47 -56 0
-27 -37 -43 -47 -56 0
-32 -37 -43 -47 -56 0
-14 27 32 37 0
-14 27 32 43 0
-14 27 32 47 0
-14 27 32 56 0
-14 27 37 43 0
-14 27 37 47 0
-14 27 37 56 0
-14 27 43 47 0
-14 27 43 56 0
-14 27 47 56 0
-14 32 37 43 0
-14 32 37 47 0
-14 32 37 56 0
-14 32 43 47 0
-14 32 43 56 0
-14 32 47 56 0
-14 37 43 47 0
-14 37 43 56 0
-14 37 47 56 0
-14 43 47 56 0
-23 -28 -33 -38 -52 0
-23 -28 -33 -38 -57 0
-23 -28 -33 -52 -57 0
-23 -28 -38 -52 -57 0
-23 -33 -38 -52 -57 0
-28 -33 -38 -52 -57 0
-15 23 28 33 0
-15 23 28 38 0
-15 23 28 52 0
-15 23 28 57 0
-15 23 33 38 0
-15 23 33 52 0
-15 23 33 57 0
-15 23 38 52 0
-15 23 38 57 0
-15 23 52 57 0
-15 28 33 38 0
-15 28 33 52 0
-15 28 33 57 0
-15 28 38 52 0
-15 28 38 57 0
-15 28 52 57 0
-15 33 38 52 0
-15 33 38 57 0
-15 33 52 57 0
-15 38 52 57 0
-16 58 0
-16 60 0
-16 62 0
-16 63 0
-17 48 0
-17 53 0
-17 63 0
-17 64 0
-18 0
1 2 3 4 5 6 7 8 9 10 11 12 13 14 15 16 17 18 0
