p cnf 72 433
-21 1 0
-21 9 0
-22 1 0
-22 11 0
-23 1 0
-23 12 0
-24 1 0
-24 13 0
-25 1 0
-25 15 0
-26 1 0
-26 20 0
-27 2 0
-27 9 0
-28 2 0
-28 11 0
-29 2 0
-29 12 0
-30 2 0
-30 14 0
-31 2 0
-31 15 0
-32 2 0
-32 20 0
-33 3 0
-33 9 0
-34 3 0
-34 11 0
-35 3 0
-35 13 0
-36 3 0
-36 14 0
-37 3 0
-37 15 0
-38 4 0
-38 9 0
-39 4 0
-39 11 0
-40 4 0
-40 13 0
-41 4 0
-41 14 0
-42 4 0
-42 15 0
-43 5 0
-43 10 0
-44 5 0
-44 11 0
-45 5 0
-45 12 0
-46 5 0
-46 13 0
-47 5 0
-47 14 0
-48 6 0
-48 10 0
-49 6 0
-49 12 0
-50 6 0
-50 13 0
-51 6 0
-51 14 0
-52 6 0
-52 17 0
-53 7 0
-53 10 0
-54 7 0
-54 12 0
-55 7 0
-55 13 0
-56 7 0
-56 15 0
-57 7 0
-57 17 0
-58 8 0
-58 10 0
-59 8 0
-59 12 0
-60 8 0
-60 14 0
-61 8 0
-61 15 0
-62 8 0
-62 19 0
-63 9 0
-63 16 0
-64 9 0
-64 18 0
-65 10 0
-65 16 0
-66 10 0
-66 18 0
-67 11 0
-67 16 0
-68 16 0
-68 17 0
-69 16 0
-69 19 0
-70 17 0
-70 18 0
-71 18 0
-71 19 0
-72 18 0
-72 20 0
-21 -22 -23 -24 -25 0
-21 -22 -23 -24 -26 0
-21 -22 -23 -25 -26 0
-21 -22 -24 -25 -26 0
-21 -23 -24 -25 -26 0
-22 -23 -24 -25 -26 0
-1 21 22 23 0
-1 21 22 24 0
-1 21 22 25 0
-1 21 22 26 0
-1 21 23 24 0
-1 21 23 25 0
-1 21 23 26 0
-1 21 24 25 0
-1 21 24 26 0
-1 21 25 26 0
-1 22 23 24 0
-1 22 23 25 0
-1 22 23 26 0
-1 22 24 25 0
-1 22 24 26 0
-1 22 25 26 0
-1 23 24 25 0
-1 23 24 26 0
-1 23 25 26 0
-1 24 25 26 0
-27 -28 -29 -30 -31 0
-27 -28 -29 -30 -32 0
-27 -28 -29 -31 -32 0
-27 -28 -30 -31 -32 0
-27 -29 -30 -31 -32 0
-28 -29 -30 -31 -32 0
-2 27 28 29 0
-2 27 28 30 0
-2 27 28 31 0
-2 27 28 32 0
-2 27 29 30 0
-2 27 29 31 0
-2 27 29 32 0
-2 27 30 31 0
-2 27 30 32 0
-2 27 31 32 0
-2 28 29 30 0
-2 28 29 31 0
-2 28 29 32 0
-2 28 30 31 0
-2 28 30 32 0
-2 28 31 32 0
-2 29 30 31 0
-2 29 30 32 0
-2 29 31 32 0
-2 30 31 32 0
-33 -34 -35 -36 -37 0
-3 33 34 0
-3 33 35 0
-3 33 36 0
-3 33 37 0
-3 34 35 0
-3 34 36 0
-3 34 37 0
-3 35 36 0
-3 35 37 0
-3 36 37 0
-38 -39 -40 -41 -42 0
-4 38 39 0
-4 38 40 0
-4 38 41 0
-4 38 42 0
-4 39 40 0
-4 39 41 0
-4 39 42 0
-4 40 41 0
-4 40 42 0
-4 41 42 0
-43 -44 -45 -46 -47 0
-5 43 44 0
-5 43 45 0
-5 43 46 0
-5 43 47 0
-5 44 45 0
-5 44 46 0
-5 44 47 0
-5 45 46 0
-5 45 47 0
-5 46 47 0
-48 -49 -50 -51 -52 0
-6 48 49 0
-6 48 50 0
-6 48 51 0
-6 48 52 0
-6 49 50 0
-6 49 51 0
-6 49 52 0
-6 50 51 0
-6 50 52 0
-6 51 52 0
-53 -54 -55 -56 -57 0
-7 53 54 0
-7 53 55 0
-7 53 56 0
-7 53 57 0
-7 54 55 0
-7 54 56 0
-7 54 57 0
-7 55 56 0
-7 55 57 0
-7 56 57 0
-58 -59 -60 -61 -62 0
-8 58 59 0
-8 58 60 0
-8 58 61 0
-8 58 62 0
-8 59 60 0
-8 59 61 0
-8 59 62 0
-8 60 61 0
-8 60 62 0
-8 61 62 0
-21 -27 -33 -38 -63 0
-21 -27 -33 -38 -64 0
-21 -27 -33 -63 -64 0
-21 -27 -38 -63 -64 0
-21 -33 -38 -63 -64 0
-27 -33 -38 -63 -64 0
-9 21 27 33 0
-9 21 27 38 0
-9 21 27 63 0
-9 21 27 64 0
-9 21 33 38 0
-9 21 33 63 0
-9 21 33 64 0
-9 21 38 63 0
-9 21 38 64 0
-9 21 63 64 0
-9 27 33 38 0
-9 27 33 63 0
-9 27 33 64 0
-9 27 38 63 0
-9 27 38 64 0
-9 27 63 64 0
-9 33 38 63 0
-9 33 38 64 0
-9 33 63 64 0
-9 38 63 64 0
-43 -48 -53 -58 -65 0
-43 -48 -53 -58 -66 0
-43 -48 -53 -65 -66 0
-43 -48 -58 -65 -66 0
-43 -53 -58 -65 -66 0
-48 -53 -58 -65 -66 0
-10 43 48 53 0
-10 43 48 58 0
-10 43 48 65 0
-10 43 48 66 0
-10 43 53 58 0
-10 43 53 65 0
-10 43 53 66 0
-10 43 58 65 0
-10 43 58 66 0
-10 43 65 66 0
-10 48 53 58 0
-10 48 53 65 0
-10 48 53 66 0
-10 48 58 65 0
-10 48 58 66 0
-10 48 65 66 0
-10 53 58 65 0
-10 53 58 66 0
-10 53 65 66 0
-10 58 65 66 0
-22 -28 -34 -39 -44 0
-22 -28 -34 -39 -67 0
-22 -28 -34 -44 -67 0
-22 -28 -39 -44 -67 0
-22 -34 -39 -44 -67 0
-28 -34 -39 -44 -67 0
-11 22 28 34 0
-11 22 28 39 0
-11 22 28 44 0
-11 22 28 67 0
-11 22 34 39 0
-11 22 34 44 0
-11 22 34 67 0
-11 22 39 44 0
-11 22 39 67 0
-11 22 44 67 0
-11 28 34 39 0
-11 28 34 44 0
-11 28 34 67 0
-11 28 39 44 0
-11 28 39 67 0
-11 28 44 67 0
-11 34 39 44 0
-11 34 39 67 0
-11 34 44 67 0
-11 39 44 67 0
-23 -29 -45 -49 -54 0
-23 -29 -45 -49 -59 0
-23 -29 -45 -54 -59 0
-23 -29 -49 -54 -59 0
-23 -45 -49 -54 -59 0
-29 -45 -49 -54 -59 0
-12 23 29 45 0
-12 23 29 49 0
-12 23 29 54 0
-12 23 29 59 0
-12 23 45 49 0
-12 23 45 54 0
-12 23 45 59 0
-12 23 49 54 0
-12 23 49 59 0
-12 23 54 59 0
-12 29 45 49 0
-12 29 45 54 0
-12 29 45 59 0
-12 29 49 54 0
-12 29 49 59 0
-12 29 54 59 0
-12 45 49 54 0
-12 45 49 59 0
-12 45 54 59 0
-12 49 54 59 0
-24 -35 -40 -46 -50 0
-24 -35 -40 -46 -55 0
-24 -35 -40 -50 -55 0
-24 -35 -46 -50 -55 0
-24 -40 -46 -50 -55 0
-35 -40 -46 -50 -55 0
-13 24 35 40 0
-13 24 35 46 0
-13 24 35 50 0
-13 24 35 55 0
-13 24 40 46 0
-13 24 40 50 0
-13 24 40 55 0
-13 24 46 50 0
-13 24 46 55 0
-13 24 50 55 0
-13 35 40 46 0
-13 35 40 50 0
-13 35 40 55 0
-13 35 46 50 0
-13 35 46 55 0
-13 35 50 55 0
-13 40 46 50 0
-13 40 46 55 0
-13 40 50 55 0
-13 46 50 55 0
-30 -36 -41 -47 -51 0
-30 -36 -41 -47 -60 0
-30 -36 -41 -51 -60 0
-30 -36 -47 -51 -60 0
-30 -41 -47 -51 -60 0
-36 -41 -47 -51 -60 0
-14 30 36 41 0
-14 30 36 47 0
-14 30 36 51 0
-14 30 36 60 0
-14 30 41 47 0
-14 30 41 51 0
-14 30 41 60 0
-14 30 47 51 0
-14 30 47 60 0
-14 30 51 60 0
-14 36 41 47 0
-14 36 41 51 0
-14 36 41 60 0
-14 36 47 51 0
-14 36 47 60 0
-14 36 51 60 0
-14 41 47 51 0
-14 41 47 60 0
-14 41 51 60 0
-14 47 51 60 0
-25 -31 -37 -42 -56 0
-25 -31 -37 -42 -61 0
-25 -31 -37 -56 -61 0
-25 -31 -42 -56 -61 0
-25 -37 -42 -56 -61 0
-31 -37 -42 -56 -61 0
-15 25 31 37 0
-15 25 31 42 0
-15 25 31 56 0
-15 25 31 61 0
-15 25 37 42 0
-15 25 37 56 0
-15 25 37 61 0
-15 25 42 56 0
-15 25 42 61 0
-15 25 56 61 0
-15 31 37 42 0
-15 31 37 56 0
-15 31 37 61 0
-15 31 42 56 0
-15 31 42 61 0
-15 31 56 61 0
-15 37 42 56 0
-15 37 42 61 0
-15 37 56 61 0
-15 42 56 61 0
-63 -65 -67 -68 -69 0
-16 63 65 0
-16 63 67 0
-16 63 68 0
-16 63 69 0
-16 65 67 0
-16 65 68 0
-16 65 69 0
-16 67 68 0
-16 67 69 0
-16 68 69 0
-17 52 0
-17 57 0
-17 68 0
-17 70 0
-64 -66 -70 -71 -72 0
-18 64 66 0
-18 64 70 0
-18 64 71 0
-18 64 72 0
-18 66 70 0
-18 66 71 0
-18 66 72 0
-18 70 71 0
-18 70 72 0
-18 71 72 0
-19 0
-20 0
1 2 3 4 5 6 7 8 9 10 11 12 13 14 15 16 17 18 19 20 0
